
List of user-set options:

                                    Name   Value                used
                         derivative_test = first-order           yes
                        file_print_level = 5                     yes
                   hessian_approximation = limited-memory        yes
                                  hsllib = /home/grant/packages/ThirdParty-HSL/.libs/libcoinhsl.so  yes
                           linear_solver = ma97                  yes
                                max_iter = 100                   yes
                             output_file = IPOPT.out             yes
                             print_level = 0                     yes
                      print_user_options = yes                   yes
                                      sb = yes                   yes
This is Ipopt version 3.14.7, running with linear solver ma97.

Starting derivative checker for first derivatives.


No errors detected by derivative checker.

Number of nonzeros in equality constraint Jacobian...:        0
Number of nonzeros in inequality constraint Jacobian.:        3
Number of nonzeros in Lagrangian Hessian.............:        0

Total number of variables............................:        3
                     variables with only lower bounds:        0
                variables with lower and upper bounds:        3
                     variables with only upper bounds:        0
Total number of equality constraints.................:        0
Total number of inequality constraints...............:        1
        inequality constraints with only lower bounds:        0
   inequality constraints with lower and upper bounds:        0
        inequality constraints with only upper bounds:        0

iter    objective    inf_pr   inf_du lg(mu)  ||d||  lg(rg) alpha_du alpha_pr  ls
   0  4.4771592e-02 0.00e+00 2.66e-01   0.0 0.00e+00    -  0.00e+00 0.00e+00   0
   1  3.4284712e-02 0.00e+00 1.62e-01  -0.8 1.44e-01    -  1.00e+00 1.00e+00f  1
   2  2.2761225e-02 0.00e+00 1.74e-01  -1.9 1.51e-01    -  9.95e-01 1.00e+00f  1
   3  1.3181520e-03 0.00e+00 1.29e-01  -3.0 6.81e-02    -  9.97e-01 1.00e+00f  1
   4  0.0000000e+00 0.00e+00 1.93e-05  -4.3 4.54e-02    -  1.00e+00 2.50e-01f  3
   5  0.0000000e+00 0.00e+00 1.09e-09 -10.4 3.25e-13    -  1.00e+00 1.00e+00f  1

Number of Iterations....: 5

                                   (scaled)                 (unscaled)
Objective...............:   0.0000000000000000e+00    0.0000000000000000e+00
Dual infeasibility......:   1.0918971568091095e-09    1.0918971568091095e-09
Constraint violation....:   0.0000000000000000e+00    0.0000000000000000e+00
Variable bound violation:   0.0000000000000000e+00    0.0000000000000000e+00
Complementarity.........:   3.2924077234403190e-09    3.2924077234403190e-09
Overall NLP error.......:   3.2924077234403190e-09    3.2924077234403190e-09


Number of objective function evaluations             = 12
Number of objective gradient evaluations             = 6
Number of equality constraint evaluations            = 0
Number of inequality constraint evaluations          = 12
Number of equality constraint Jacobian evaluations   = 0
Number of inequality constraint Jacobian evaluations = 6
Number of Lagrangian Hessian evaluations             = 0
Total seconds in IPOPT                               = 0.017

EXIT: Optimal Solution Found.
